====================================================================================================
ROTATION SCENARIOS - GUROBI GROUND TRUTH BENCHMARK
====================================================================================================
Started: 2025-12-08 11:10:41
Gurobi version: (12, 0, 3)

====================================================================================================
SCENARIO: rotation_micro_25
====================================================================================================
Configuration:
  Farms: 5
  Crop families: 6
  Periods: 3
  Total variables: 90
  Rotation gamma: 0.15
  Frustration ratio: 40%
  Negative strength: -0.3
  k-neighbors: 4

Building MIP model...
Set parameter Username
Set parameter LicenseID to value 2728803
Academic license - for non-commercial use only - expires 2026-10-28
Set parameter OutputFlag to value 1
Set parameter TimeLimit to value 300
Set parameter MIPGap to value 0.001
  Variables: 90
  Constraints: 0
  Quadratic terms: 0
  Neighbor edges: 10
  Rotation matrix: 61.1% negative synergies ✓

Solving MIP...
Gurobi Optimizer version 12.0.3 build v12.0.3rc0 (mac64[x86] - Darwin 22.6.0 22H730)

CPU model: Intel(R) Core(TM) i5-7360U CPU @ 2.30GHz
Thread count: 2 physical cores, 4 logical processors, using up to 4 threads

Non-default parameters:
TimeLimit  300
MIPGap  0.001

Optimize a model with 15 rows, 90 columns and 90 nonzeros
Model fingerprint: 0xa487817b
Model has 1440 quadratic objective terms
Variable types: 0 continuous, 90 integer (90 binary)
Coefficient statistics:
  Matrix range     [1e+00, 1e+00]
  Objective range  [1e-02, 3e-01]
  QObjective range [4e-04, 4e-02]
  Bounds range     [1e+00, 1e+00]
  RHS range        [1e+00, 1e+00]
Found heuristic solution: objective 1.3465714
Presolve time: 0.05s
Presolved: 1455 rows, 1530 columns, 4410 nonzeros
Variable types: 0 continuous, 1530 integer (1530 binary)

Root relaxation: objective 1.919192e+00, 1478 iterations, 0.03 seconds (0.02 work units)

    Nodes    |    Current Node    |     Objective Bounds      |     Work
 Expl Unexpl |  Obj  Depth IntInf | Incumbent    BestBd   Gap | It/Node Time

     0     0    1.91919    0  176    1.34657    1.91919  42.5%     -    0s
H    0     0                       1.4646506    1.91919  31.0%     -    0s
H    0     0                       1.7874482    1.91919  7.37%     -    0s
H    0     0                       1.8190714    1.91919  5.50%     -    0s
H    0     0                       1.8295137    1.91919  4.90%     -    0s
H    0     0                       1.8644682    1.91919  2.94%     -    0s
*    0     0               0       1.9118074    1.91181  0.00%     -    0s

Cutting planes:
  Gomory: 1
  MIR: 16
  Zero half: 35
  RLT: 38
  BQP: 3

Explored 1 nodes (1619 simplex iterations) in 0.16 seconds (0.07 work units)
Thread count was 4 (of 4 available processors)

Solution count 7: 1.91181 1.86447 1.82951 ... 1.34657

Optimal solution found (tolerance 1.00e-03)
Best objective 1.911807443337e+00, best bound 1.911807443337e+00, gap 0.0000%

Solving LP relaxation...
Gurobi Optimizer version 12.0.3 build v12.0.3rc0 (mac64[x86] - Darwin 22.6.0 22H730)

CPU model: Intel(R) Core(TM) i5-7360U CPU @ 2.30GHz
Thread count: 2 physical cores, 4 logical processors, using up to 4 threads

Non-default parameters:
TimeLimit  300
MIPGap  0.001

Optimize a model with 15 rows, 90 columns and 90 nonzeros
Model fingerprint: 0xa1480afe
Model has 1440 quadratic objective terms
Coefficient statistics:
  Matrix range     [1e+00, 1e+00]
  Objective range  [1e-02, 3e-01]
  QObjective range [4e-04, 4e-02]
  Bounds range     [1e+00, 1e+00]
  RHS range        [1e+00, 1e+00]

Continuous model is non-convex -- solving as a MIP

Presolve time: 0.00s
Presolved: 2896 rows, 1532 columns, 7291 nonzeros
Presolved model has 1440 bilinear constraint(s)
Variable types: 1532 continuous, 0 integer (0 binary)
Found heuristic solution: objective 1.9074381

Root relaxation: objective 1.919192e+00, 732 iterations, 0.01 seconds (0.01 work units)

    Nodes    |    Current Node    |     Objective Bounds      |     Work
 Expl Unexpl |  Obj  Depth IntInf | Incumbent    BestBd   Gap | It/Node Time

     0     0    1.91919    0  160    1.90744    1.91919  0.62%     -    0s
     0     0    1.91919    0  160    1.90744    1.91919  0.62%     -    0s
*    0     0               0       1.9118074    1.91181  0.00%     -    0s

Cutting planes:
  RLT: 72
  BQP: 52

Explored 1 nodes (840 simplex iterations) in 0.06 seconds (0.03 work units)
Thread count was 4 (of 4 available processors)

Solution count 2: 1.91181 1.90744 

Optimal solution found (tolerance 1.00e-03)
Best objective 1.911807443337e+00, best bound 1.911807443337e+00, gap 0.0000%

Results:
  Status: OPTIMAL
  MIP Objective: 1.911807
  LP Objective: 1.911807
  Integrality Gap: 0.00%
  LP Fractional Vars: 0/90 (0.0%)
  Solve Time: 0.16s
  Nodes Explored: 1
  Solutions Found: 7
  Hardness: EASY (LP finds integer solution)

====================================================================================================
SCENARIO: rotation_small_50
====================================================================================================
Configuration:
  Farms: 10
  Crop families: 6
  Periods: 3
  Total variables: 180
  Rotation gamma: 0.15
  Frustration ratio: 40%
  Negative strength: -0.3
  k-neighbors: 4

Building MIP model...
Set parameter OutputFlag to value 1
Set parameter TimeLimit to value 300
Set parameter MIPGap to value 0.001
  Variables: 180
  Constraints: 0
  Quadratic terms: 0
  Neighbor edges: 25
  Rotation matrix: 61.1% negative synergies ✓

Solving MIP...
Gurobi Optimizer version 12.0.3 build v12.0.3rc0 (mac64[x86] - Darwin 22.6.0 22H730)

CPU model: Intel(R) Core(TM) i5-7360U CPU @ 2.30GHz
Thread count: 2 physical cores, 4 logical processors, using up to 4 threads

Non-default parameters:
TimeLimit  300
MIPGap  0.001

Optimize a model with 30 rows, 180 columns and 180 nonzeros
Model fingerprint: 0x6fa9f8be
Model has 3420 quadratic objective terms
Variable types: 0 continuous, 180 integer (180 binary)
Coefficient statistics:
  Matrix range     [1e+00, 1e+00]
  Objective range  [6e-03, 2e-01]
  QObjective range [5e-05, 3e-02]
  Bounds range     [1e+00, 1e+00]
  RHS range        [1e+00, 1e+00]
Found heuristic solution: objective 1.3890596
Presolve time: 0.04s
Presolved: 3450 rows, 3600 columns, 10440 nonzeros
Variable types: 0 continuous, 3600 integer (3600 binary)

Root relaxation: objective 1.915083e+00, 2997 iterations, 0.05 seconds (0.04 work units)

    Nodes    |    Current Node    |     Objective Bounds      |     Work
 Expl Unexpl |  Obj  Depth IntInf | Incumbent    BestBd   Gap | It/Node Time

     0     0    1.91508    0  294    1.38906    1.91508  37.9%     -    0s
H    0     0                       1.6366569    1.91508  17.0%     -    0s
H    0     0                       1.9078279    1.91508  0.38%     -    0s
H    0     0                       1.9078849    1.91508  0.38%     -    0s
H    0     0                       1.9087537    1.91508  0.33%     -    0s
H    0     0                       1.9128603    1.91508  0.12%     -    0s
H    0     0                       1.9133493    1.91508  0.09%     -    0s

Explored 1 nodes (2997 simplex iterations) in 0.15 seconds (0.12 work units)
Thread count was 4 (of 4 available processors)

Solution count 7: 1.91335 1.91286 1.90875 ... 1.38906

Optimal solution found (tolerance 1.00e-03)
Best objective 1.913349298468e+00, best bound 1.915082856582e+00, gap 0.0906%

Solving LP relaxation...
Gurobi Optimizer version 12.0.3 build v12.0.3rc0 (mac64[x86] - Darwin 22.6.0 22H730)

CPU model: Intel(R) Core(TM) i5-7360U CPU @ 2.30GHz
Thread count: 2 physical cores, 4 logical processors, using up to 4 threads

Non-default parameters:
TimeLimit  300
MIPGap  0.001

Optimize a model with 30 rows, 180 columns and 180 nonzeros
Model fingerprint: 0x51413cbb
Model has 3420 quadratic objective terms
Coefficient statistics:
  Matrix range     [1e+00, 1e+00]
  Objective range  [6e-03, 2e-01]
  QObjective range [5e-05, 3e-02]
  Bounds range     [1e+00, 1e+00]
  RHS range        [1e+00, 1e+00]

Continuous model is non-convex -- solving as a MIP

Presolve time: 0.01s
Presolved: 6871 rows, 3602 columns, 17281 nonzeros
Presolved model has 3420 bilinear constraint(s)
Variable types: 3602 continuous, 0 integer (0 binary)
Found heuristic solution: objective 1.9143842

Root relaxation: interrupted, 1472 iterations, 0.01 seconds (0.01 work units)

    Nodes    |    Current Node    |     Objective Bounds      |     Work
 Expl Unexpl |  Obj  Depth IntInf | Incumbent    BestBd   Gap | It/Node Time

     0     0          -    0         1.91438    1.91625  0.10%     -    0s

Explored 1 nodes (1472 simplex iterations) in 0.05 seconds (0.02 work units)
Thread count was 4 (of 4 available processors)

Solution count 1: 1.91438 

Optimal solution found (tolerance 1.00e-03)
Best objective 1.914384083817e+00, best bound 1.916249487394e+00, gap 0.0974%

Results:
  Status: OPTIMAL
  MIP Objective: 1.913349
  LP Objective: 1.914384
  Integrality Gap: 0.05%
  LP Fractional Vars: 29/180 (16.1%)
  Solve Time: 0.15s
  Nodes Explored: 1
  Solutions Found: 7
  Hardness: EASY (LP finds integer solution)

====================================================================================================
SCENARIO: rotation_medium_100
====================================================================================================
Configuration:
  Farms: 20
  Crop families: 6
  Periods: 3
  Total variables: 360
  Rotation gamma: 0.2
  Frustration ratio: 50%
  Negative strength: -0.5
  k-neighbors: 4

Building MIP model...
Set parameter OutputFlag to value 1
Set parameter TimeLimit to value 300
Set parameter MIPGap to value 0.001
  Variables: 360
  Constraints: 0
  Quadratic terms: 0
  Neighbor edges: 48
  Rotation matrix: 66.7% negative synergies ✓

Solving MIP...
Gurobi Optimizer version 12.0.3 build v12.0.3rc0 (mac64[x86] - Darwin 22.6.0 22H730)

CPU model: Intel(R) Core(TM) i5-7360U CPU @ 2.30GHz
Thread count: 2 physical cores, 4 logical processors, using up to 4 threads

Non-default parameters:
TimeLimit  300
MIPGap  0.001

Optimize a model with 60 rows, 360 columns and 360 nonzeros
Model fingerprint: 0xed0956ac
Model has 6624 quadratic objective terms
Variable types: 0 continuous, 360 integer (360 binary)
Coefficient statistics:
  Matrix range     [1e+00, 1e+00]
  Objective range  [2e-03, 2e-01]
  QObjective range [4e-05, 5e-02]
  Bounds range     [1e+00, 1e+00]
  RHS range        [1e+00, 1e+00]
Found heuristic solution: objective 1.2865504
Presolve time: 0.09s
Presolved: 6684 rows, 6984 columns, 20232 nonzeros
Variable types: 0 continuous, 6984 integer (6984 binary)

Root relaxation: objective 1.882503e+00, 5842 iterations, 0.14 seconds (0.09 work units)

    Nodes    |    Current Node    |     Objective Bounds      |     Work
 Expl Unexpl |  Obj  Depth IntInf | Incumbent    BestBd   Gap | It/Node Time

     0     0    1.88250    0  788    1.28655    1.88250  46.3%     -    0s
H    0     0                       1.4640071    1.88250  28.6%     -    0s
H    0     0                       1.7304524    1.88250  8.79%     -    0s
H    0     0                       1.7590504    1.88250  7.02%     -    0s
H    0     0                       1.7599008    1.88250  6.97%     -    0s
H    0     0                       1.8266807    1.88250  3.06%     -    0s
     0     0    1.83810    0 1073    1.82668    1.83810  0.63%     -    0s
     0     0    1.83803    0 1099    1.82668    1.83803  0.62%     -    0s
     0     0    1.83187    0  748    1.82668    1.83187  0.28%     -    1s
H    0     0                       1.8317812    1.83187  0.00%     -    1s

Cutting planes:
  Gomory: 20
  Dual implied bound: 3
  MIR: 36
  StrongCG: 1
  Zero half: 53
  RLT: 819
  BQP: 412

Explored 1 nodes (10760 simplex iterations) in 1.50 seconds (0.95 work units)
Thread count was 4 (of 4 available processors)

Solution count 7: 1.83178 1.82668 1.7599 ... 1.28655

Optimal solution found (tolerance 1.00e-03)
Best objective 1.831781184309e+00, best bound 1.831870421130e+00, gap 0.0049%

Solving LP relaxation...
Gurobi Optimizer version 12.0.3 build v12.0.3rc0 (mac64[x86] - Darwin 22.6.0 22H730)

CPU model: Intel(R) Core(TM) i5-7360U CPU @ 2.30GHz
Thread count: 2 physical cores, 4 logical processors, using up to 4 threads

Non-default parameters:
TimeLimit  300
MIPGap  0.001

Optimize a model with 60 rows, 360 columns and 360 nonzeros
Model fingerprint: 0xcee08e9c
Model has 6624 quadratic objective terms
Coefficient statistics:
  Matrix range     [1e+00, 1e+00]
  Objective range  [2e-03, 2e-01]
  QObjective range [4e-05, 5e-02]
  Bounds range     [1e+00, 1e+00]
  RHS range        [1e+00, 1e+00]

Continuous model is non-convex -- solving as a MIP

Presolve time: 0.02s
Presolved: 13309 rows, 6986 columns, 33481 nonzeros
Presolved model has 6624 bilinear constraint(s)
Variable types: 6986 continuous, 0 integer (0 binary)
Found heuristic solution: objective 1.8289729

Root relaxation: objective 1.882503e+00, 3220 iterations, 0.07 seconds (0.05 work units)

    Nodes    |    Current Node    |     Objective Bounds      |     Work
 Expl Unexpl |  Obj  Depth IntInf | Incumbent    BestBd   Gap | It/Node Time

     0     0    1.88250    0  736    1.82897    1.88250  2.93%     -    0s
     0     0    1.83614    0 1260    1.82897    1.83614  0.39%     -    0s
     0     0    1.83610    0 1286    1.82897    1.83610  0.39%     -    0s
*    0     0               0       1.8318068    1.83181  0.00%     -    0s

Cutting planes:
  RLT: 877
  BQP: 794
  PSD: 3

Explored 1 nodes (6623 simplex iterations) in 0.78 seconds (0.44 work units)
Thread count was 4 (of 4 available processors)

Solution count 2: 1.83181 1.82897 

Optimal solution found (tolerance 1.00e-03)
Best objective 1.831806763736e+00, best bound 1.831806763736e+00, gap 0.0000%

Results:
  Status: OPTIMAL
  MIP Objective: 1.831781
  LP Objective: 1.831807
  Integrality Gap: 0.00%
  LP Fractional Vars: 0/360 (0.0%)
  Solve Time: 1.50s
  Nodes Explored: 1
  Solutions Found: 7
  Hardness: EASY (LP finds integer solution)

====================================================================================================
SCENARIO: rotation_large_200
====================================================================================================
Configuration:
  Farms: 50
  Crop families: 6
  Periods: 3
  Total variables: 900
  Rotation gamma: 0.25
  Frustration ratio: 60%
  Negative strength: -0.7
  k-neighbors: 4

Building MIP model...
Set parameter OutputFlag to value 1
Set parameter TimeLimit to value 300
Set parameter MIPGap to value 0.001
  Variables: 900
  Constraints: 0
  Quadratic terms: 0
  Neighbor edges: 115
  Rotation matrix: 75.0% negative synergies ✓

Solving MIP...
Gurobi Optimizer version 12.0.3 build v12.0.3rc0 (mac64[x86] - Darwin 22.6.0 22H730)

CPU model: Intel(R) Core(TM) i5-7360U CPU @ 2.30GHz
Thread count: 2 physical cores, 4 logical processors, using up to 4 threads

Non-default parameters:
TimeLimit  300
MIPGap  0.001

Optimize a model with 150 rows, 900 columns and 900 nonzeros
Model fingerprint: 0xaea4dadf
Model has 16020 quadratic objective terms
Variable types: 0 continuous, 900 integer (900 binary)
Coefficient statistics:
  Matrix range     [1e+00, 1e+00]
  Objective range  [7e-04, 7e-02]
  QObjective range [2e-05, 4e-02]
  Bounds range     [1e+00, 1e+00]
  RHS range        [1e+00, 1e+00]
Found heuristic solution: objective 1.1591058
Presolve time: 0.36s
Presolved: 16170 rows, 16920 columns, 48960 nonzeros
Variable types: 0 continuous, 16920 integer (16920 binary)

Root relaxation: objective 1.888819e+00, 11976 iterations, 0.38 seconds (0.22 work units)

    Nodes    |    Current Node    |     Objective Bounds      |     Work
 Expl Unexpl |  Obj  Depth IntInf | Incumbent    BestBd   Gap | It/Node Time

     0     0    1.88882    0 1414    1.15911    1.88882  63.0%     -    0s
H    0     0                       1.5020722    1.88882  25.7%     -    0s
H    0     0                       1.5681371    1.88882  20.4%     -    1s
H    0     0                       1.6316058    1.88882  15.8%     -    1s
H    0     0                       1.6318306    1.88882  15.7%     -    1s
H    0     0                       1.7805703    1.88882  6.08%     -    1s
     0     0    1.82315    0 2297    1.78057    1.82315  2.39%     -    2s
H    0     0                       1.7809415    1.82315  2.37%     -    2s
H    0     0                       1.7822589    1.82315  2.29%     -    2s
H    0     0                       1.7926413    1.82315  1.70%     -    2s
     0     0    1.82313    0 2297    1.79264    1.82313  1.70%     -    2s
     0     0    1.81251    0 1762    1.79264    1.81251  1.11%     -    3s
H    0     0                       1.8083880    1.81251  0.23%     -    3s
     0     0    1.81198    0 1720    1.80839    1.81198  0.20%     -    3s
     0     0    1.81098    0 1708    1.80839    1.81098  0.14%     -    5s
     0     0    1.81098    0 1700    1.80839    1.81098  0.14%     -    5s
H    0     0                       1.8092096    1.81098  0.10%     -    5s

Cutting planes:
  Gomory: 23
  Cover: 5
  Dual implied bound: 2
  Clique: 1
  MIR: 8
  Zero half: 179
  RLT: 1654
  BQP: 301

Explored 1 nodes (27481 simplex iterations) in 5.99 seconds (3.53 work units)
Thread count was 4 (of 4 available processors)

Solution count 10: 1.80921 1.80839 1.79264 ... 1.50207

Optimal solution found (tolerance 1.00e-03)
Best objective 1.809209592853e+00, best bound 1.810984824532e+00, gap 0.0981%

Solving LP relaxation...
Gurobi Optimizer version 12.0.3 build v12.0.3rc0 (mac64[x86] - Darwin 22.6.0 22H730)

CPU model: Intel(R) Core(TM) i5-7360U CPU @ 2.30GHz
Thread count: 2 physical cores, 4 logical processors, using up to 4 threads

Non-default parameters:
TimeLimit  300
MIPGap  0.001

Optimize a model with 150 rows, 900 columns and 900 nonzeros
Model fingerprint: 0x607b2a0e
Model has 16020 quadratic objective terms
Coefficient statistics:
  Matrix range     [1e+00, 1e+00]
  Objective range  [7e-04, 7e-02]
  QObjective range [2e-05, 4e-02]
  Bounds range     [1e+00, 1e+00]
  RHS range        [1e+00, 1e+00]

Continuous model is non-convex -- solving as a MIP

Presolve time: 0.04s
Presolved: 32191 rows, 16922 columns, 81001 nonzeros
Presolved model has 16020 bilinear constraint(s)
Variable types: 16922 continuous, 0 integer (0 binary)
Found heuristic solution: objective 1.8054323

Root relaxation: objective 1.888819e+00, 6357 iterations, 0.27 seconds (0.19 work units)

    Nodes    |    Current Node    |     Objective Bounds      |     Work
 Expl Unexpl |  Obj  Depth IntInf | Incumbent    BestBd   Gap | It/Node Time

     0     0    1.88882    0 1780    1.80543    1.88882  4.62%     -    0s
     0     0    1.81416    0 1894    1.80543    1.81416  0.48%     -    2s
     0     0    1.81415    0 1903    1.80543    1.81415  0.48%     -    2s
     0     0    1.81090    0  117    1.80543    1.81090  0.30%     -    3s
     0     0    1.81090    0  117    1.80543    1.81090  0.30%     -    3s
H    0     0                       1.8067639    1.81090  0.23%     -    3s
     0     0    1.81089    0  118    1.80676    1.81089  0.23%     -    3s
*    0     0               0       1.8108311    1.81083  0.00%     -    3s

Cutting planes:
  RLT: 1467
  BQP: 701

Explored 1 nodes (14518 simplex iterations) in 3.76 seconds (1.70 work units)
Thread count was 4 (of 4 available processors)

Solution count 3: 1.81083 1.80676 1.80543 

Optimal solution found (tolerance 1.00e-03)
Best objective 1.810831084084e+00, best bound 1.810831084084e+00, gap 0.0000%

Results:
  Status: OPTIMAL
  MIP Objective: 1.809210
  LP Objective: 1.810831
  Integrality Gap: 0.09%
  LP Fractional Vars: 0/900 (0.0%)
  Solve Time: 5.99s
  Nodes Explored: 1
  Solutions Found: 10
  Hardness: EASY (LP finds integer solution)

====================================================================================================
SUMMARY
====================================================================================================

Scenario                  Vars     Gap        Time(s)    Nodes      Hardness
----------------------------------------------------------------------------------------------------
rotation_micro_25         90       0.00%      0.16       1          EASY
rotation_small_50         180      0.05%      0.15       1          EASY
rotation_medium_100       360      0.00%      1.50       1          EASY
rotation_large_200        900      0.09%      5.99       1          EASY

====================================================================================================
Results saved to: @todo/hardness_output/rotation_gurobi_benchmark.json
====================================================================================================

